COLUMNS

passenger_count
pickup_ID
dropoff_ID
request_time_sec
pickup_district
dropoff_district
LDuals
IDuals
vehicle_ID
pick_position
drop_position

REQUESTS_INFO
3      887       488       30789     290       199       212       212       13        1         2         
1      780       571       30805     291       52        99        99        34        1         4         
2      887       488       30789     290       199       207       207       58        1         3         
3      1031      748       30759     50        290       213       213       140       1         2         
1      236       399       30782     87        168       144       144       141       1         2         
2      945       479       30800     50        52        151       151       169       1         3         
1      354       308       30781     119       127       164       164       186       1         3         
1      793       971       30802     290       290       148       148       198       1         2         
1      420       484       30800     168       189       161       161       288       1         2         
1      297       464       30805     277       168       162       162       294       1         3         
1      959       670       30799     291       280       118       118       295       1         4         
1      524       434       30808     52        52        135       135       314       1         3         
1      795       940       30783     290       291       158       158       317       1         4         
1      369       305       30784     52        299       148       148       438       1         2         
1      418       649       30805     168       189       97        97        454       1         4         
1      463       412       30797     168       52        115       115       490       1         3         
1      881       627       30741     290       189       232       232       493       1         2         
1      304       116       30765     299       9         156       156       540       1         2         
2      354       372       30799     119       119       146       146       556       1         2         
1      279       460       30788     87        189       154       154       577       1         2         
1      268       650       30790     299       189       148       148       609       1         3         
1      421       309       30805     168       127       120       120       614       1         3         
3      950       557       30794     290       189       165       165       681       1         3         
1      983       1010      30725     291       290       251       251       707       1         3         
2      950       557       30794     290       189       165       165       711       1         2         
3      1048      1248      30750     291       129       235       235       728       1         2         
2      886       1143      30663     290       84        330       330       758       1         2         
2      836       479       30795     290       52        126       126       761       1         4         
1      347       134       30805     299       9         160       160       763       1         2         
3      926       415       30725     290       100       274       274       770       1         2         
1      545       227       30787     52        266       167       167       814       1         2         
3      441       35        30756     168       98        215       215       831       1         2         
3      413       531       30782     52        189       179       179       849       1         2         
2      983       760       30783     291       291       188       188       860       1         3         
3      876       671       30778     50        280       132       132       877       1         2         
1      863       556       30790     290       199       199       199       884       1         4         
1      795       481       30760     290       189       185       185       913       1         3         
1      412       625       30768     52        189       165       165       918       1         2         
1      526       605       30784     52        189       155       155       945       1         3         
1      947       628       30765     290       189       182       182       949       1         3         
1      983       829       30763     291       50        208       208       951       1         3         
1      983       387       30778     291       299       167       167       951       2         5         
1      1066      526       30767     291       52        145       145       960       1         3         
3      927       724       30772     290       290       201       201       1045      1         2         
1      386       230       30798     299       266       165       165       1064      1         2         
2      1002      1148      30726     291       291       282       282       1069      1         2         
1      771       675       30785     290       189       128       128       1110      1         2         
1      883       863       30778     290       290       187       187       1111      1         2         
1      368       421       30802     299       168       167       167       1122      1         3         
1      864       906       30788     290       290       174       174       1126      1         3         
1      967       836       30790     50        290       183       183       1180      1         2         
2      1024      876       30750     291       50        195       195       1316      1         2         
3      947       984       30653     290       291       309       309       1334      1         2         
3      1031      748       30759     50        290       213       213       1782      1         2         
3      482       577       30809     189       189       137       137       1870      1         2         
1      817       743       30726     290       290       238       238       1885      1         2         
4      887       909       30688     290       290       317       317       1902      1         2         
1      883       723       30796     290       290       169       169       1907      1         2         
1      813       721       30761     290       290       186       186       1939      1         2         
1      549       698       30810     52        189       0         0         0         0         0         
1      555       604       30810     199       189       0         0         0         0         0         
1      173       438       30810     286       100       0         0         0         0         0         
1      737       727       30811     189       290       0         0         0         0         0         
1      571       416       30811     52        100       0         0         0         0         0         
1      1087      393       30811     291       52        0         0         0         0         0         
1      723       46        30811     290       98        0         0         0         0         0         
1      374       399       30811     119       168       0         0         0         0         0         
3      483       603       30811     189       189       0         0         0         0         0         
2      215       580       30811     178       189       0         0         0         0         0         
1      982       1088      30811     291       291       0         0         0         0         0         
3      337       485       30812     277       189       0         0         0         0         0         
1      584       506       30812     189       189       0         0         0         0         0         
1      789       350       30812     290       127       0         0         0         0         0         
1      374       507       30812     119       189       0         0         0         0         0         
1      48        620       30812     98        131       0         0         0         0         0         
1      513       116       30812     199       9         0         0         0         0         0         
1      549       230       30812     52        266       0         0         0         0         0         
1      925       652       30813     290       189       0         0         0         0         0         
1      772       335       30813     290       119       0         0         0         0         0         
1      737       603       30813     189       189       0         0         0         0         0         
1      557       552       30814     189       189       0         0         0         0         0         
1      701       535       30814     290       189       0         0         0         0         0         
1      509       671       30814     199       280       0         0         0         0         0         
1      804       575       30814     291       189       0         0         0         0         0         
1      138       99        30814     57        286       0         0         0         0         0         
1      294       553       30814     87        189       0         0         0         0         0         
1      694       672       30814     189       189       0         0         0         0         0         
2      527       333       30815     52        119       0         0         0         0         0         
2      603       578       30816     189       189       0         0         0         0         0         
2      800       652       30816     131       189       0         0         0         0         0         
1      621       604       30816     280       189       0         0         0         0         0         
3      603       578       30816     189       189       0         0         0         0         0         
1      1087      892       30816     291       291       0         0         0         0         0         
1      479       572       30816     52        131       0         0         0         0         0         
1      620       718       30816     131       189       0         0         0         0         0         
1      850       766       30816     291       290       0         0         0         0         0         
1      506       676       30817     189       189       0         0         0         0         0         
1      307       399       30817     127       168       0         0         0         0         0         
1      151       484       30817     9         189       0         0         0         0         0         
1      233       651       30817     206       189       0         0         0         0         0         
1      269       573       30817     127       189       0         0         0         0         0         
1      233       287       30818     206       299       0         0         0         0         0         
1      745       649       30818     290       189       0         0         0         0         0         
1      770       557       30819     290       189       0         0         0         0         0         
1      527       371       30819     52        52        0         0         0         0         0         
1      665       827       30819     131       291       0         0         0         0         0         
1      768       651       30819     290       189       0         0         0         0         0         
1      848       716       30819     291       189       0         0         0         0         0         
1      549       533       30820     52        199       0         0         0         0         0         
1      840       697       30820     290       189       0         0         0         0         0         
1      745       577       30820     290       189       0         0         0         0         0         
1      397       454       30820     168       52        0         0         0         0         0         
1      158       228       30820     174       266       0         0         0         0         0         
1      886       794       30820     290       290       0         0         0         0         0         
1      352       152       30821     119       9         0         0         0         0         0         
1      835       680       30821     290       290       0         0         0         0         0         
1      885       504       30822     290       52        0         0         0         0         0         
1      742       604       30822     290       189       0         0         0         0         0         
1      1187      1386      30823     291       129       0         0         0         0         0         
1      232       686       30823     266       131       0         0         0         0         0         
4      633       627       30824     189       189       0         0         0         0         0         
1      905       557       30824     290       189       0         0         0         0         0         
1      959       914       30824     291       291       0         0         0         0         0         
1      527       800       30824     52        131       0         0         0         0         0         
1      189       601       30824     286       189       0         0         0         0         0         
1      551       593       30825     189       52        0         0         0         0         0         
1      961       859       30825     291       290       0         0         0         0         0         
1      374       581       30825     119       189       0         0         0         0         0         
1      84        46        30825     287       98        0         0         0         0         0         
1      950       925       30825     290       290       0         0         0         0         0         
1      949       861       30826     290       290       0         0         0         0         0         
1      804       652       30827     291       189       0         0         0         0         0         
1      397       698       30827     168       189       0         0         0         0         0         
1      333       576       30827     119       189       0         0         0         0         0         
2      598       231       30828     189       266       0         0         0         0         0         
1      668       710       30828     280       131       0         0         0         0         0         
2      913       1108      30828     291       291       0         0         0         0         0         
3      913       1108      30828     291       291       0         0         0         0         0         
1      268       698       30828     299       189       0         0         0         0         0         
1      1211      1088      30828     129       291       0         0         0         0         0         
1      1127      740       30829     291       50        0         0         0         0         0         
1      969       630       30829     290       189       0         0         0         0         0         
1      850       662       30829     291       131       0         0         0         0         0         
3      418       228       30829     168       266       0         0         0         0         0         
2      418       228       30829     168       266       0         0         0         0         0         
3      736       652       30830     131       189       0         0         0         0         0         
1      1046      765       30830     291       290       0         0         0         0         0         
1      325       967       30830     299       50        0         0         0         0         0         
1      275       35        30830     87        98        0         0         0         0         0         
2      736       652       30830     131       189       0         0         0         0         0         
1      47        189       30831     98        286       0         0         0         0         0         
1      722       1198      30831     290       84        0         0         0         0         0         
1      580       694       30831     189       189       0         0         0         0         0         
1      349       673       30831     127       189       0         0         0         0         0         
1      1066      1244      30831     291       192       0         0         0         0         0         
1      904       530       30832     290       189       0         0         0         0         0         
1      720       578       30832     290       189       0         0         0         0         0         
1      441       35        30832     168       98        0         0         0         0         0         
2      527       459       30833     52        189       0         0         0         0         0         
3      527       459       30833     52        189       0         0         0         0         0         
1      527       580       30833     52        189       0         0         0         0         0         
1      163       727       30833     178       290       0         0         0         0         0         
2      632       36        30833     189       98        0         0         0         0         0         
1      466       605       30833     199       189       0         0         0         0         0         
1      723       626       30834     290       189       0         0         0         0         0         
3      604       698       30834     189       189       0         0         0         0         0         
2      604       698       30834     189       189       0         0         0         0         0         
2      462       459       30834     189       189       0         0         0         0         0         
1      371       544       30834     52        52        0         0         0         0         0         
1      513       377       30834     199       168       0         0         0         0         0         
1      304       441       30835     299       168       0         0         0         0         0         
1      584       746       30835     189       290       0         0         0         0         0         
1      229       529       30835     266       189       0         0         0         0         0         
1      410       268       30835     52        299       0         0         0         0         0         
1      438       555       30835     100       199       0         0         0         0         0         
2      835       557       30836     290       189       0         0         0         0         0         
2      397       576       30836     168       189       0         0         0         0         0         
1      715       835       30836     131       290       0         0         0         0         0         
1      345       548       30836     299       52        0         0         0         0         0         
2      557       439       30836     189       189       0         0         0         0         0         
2      501       432       30837     52        52        0         0         0         0         0         
1      738       840       30837     189       290       0         0         0         0         0         
1      747       759       30837     290       131       0         0         0         0         0         
1      509       510       30838     199       199       0         0         0         0         0         
1      236       526       30838     87        52        0         0         0         0         0         
1      805       744       30838     291       290       0         0         0         0         0         
1      336       747       30838     277       290       0         0         0         0         0         
1      662       369       30838     131       52        0         0         0         0         0         
2      749       557       30838     290       189       0         0         0         0         0         
1      527       584       30839     52        189       0         0         0         0         0         
1      557       417       30839     189       100       0         0         0         0         0         
1      790       719       30839     290       189       0         0         0         0         0         
1      458       193       30839     52        266       0         0         0         0         0         
4      331       532       30839     127       199       0         0         0         0         0         
